*SDPA file generated by SOSm2
9 =mdim
1 =nblocks
5
0 0 0 -1 0 0 0 0 0
0 1 1 5 -.5
1 1 1 3 -.5
1 1 2 2 1
2 1 1 4 -1
2 1 2 5 1
3 1 2 4 -1
3 1 3 5 1
4 1 1 1 -1
5 1 1 3 -.5
5 1 1 5 .5
6 1 1 4 .5
6 1 2 3 -.5
7 1 2 4 .5
7 1 3 3 -1
8 1 3 4 -.5
8 1 4 5 .5
9 1 2 4 -.5
9 1 5 5 1
